100 63559

 488 729
822 504
438 456
65 45
356 214
533 59
252 644
235 616
227 195
525 925
313 489
49 157
118 610
54 226
650 412
565 205
44 79
815 124
53 471
586 940
558 218
525 516
677 602
102 104
792 393
770 631
982 645
849 824
868 608
398 980
138 434
675 331
921 143
387 800
111 540
614 278
17 233
780 529
182 571
884 90
536 492
541 199
171 362
409 441
740 26
378 25
188 394
858 507
230 301
833 339
852 267
119 461
156 693
784 456
687 360
465 68
104 863
604 412
698 971
972 491
795 833
502 49
693 687
682 564
699 102
175 216
734 438
745 700
674 569
421 559
134 159
391 489
992 686
736 242
501 794
665 753
33 882
55 5
954 596
519 820
756 361
825 459
638 248
12 566
528 673
720 946
555 422
373 923
484 738
973 15
647 736
228 573
623 122
307 277
457 558
160 453
331 390
776 294
225 574
983 598
